NAME PortOpt_n10_m4_inst_0
ROWS
 N  OBJ
 E  budget  
 G  return  
 L  uncertain_risk
 L  fixed_risk
COLUMNS
    asset[0]  budget    1
    asset[0]  return    4.5490770857757985e+000
    asset[1]  budget    1
    asset[1]  return    2.2290798526221902e+000
    asset[2]  budget    1
    asset[2]  return    4.6201334662924216e+000
    asset[3]  budget    1
    asset[3]  return    1.8695053425694854e+000
    asset[4]  budget    1
    asset[4]  return    1.1353884275451307e+000
    asset[5]  budget    1
    asset[5]  return    3.2282275252826622e+000
    asset[6]  budget    1
    asset[6]  return    3.1532498801609683e+000
    asset[7]  budget    1
    asset[7]  return    3.9057750603877466e+000
    asset[8]  budget    1
    asset[8]  return    4.5973204883471013e+000
    asset[9]  budget    1
    asset[9]  return    3.1490107382150883e+000
    return_var  OBJ       -1
    return_var  return    -1
    uncertain_risk_var  OBJ       1
    uncertain_risk_var  uncertain_risk  -1
    fixed_risk_var  OBJ       1
    fixed_risk_var  fixed_risk  -1
RHS
    RHS1      budget    1
BOUNDS
QCMATRIX   uncertain_risk
    asset[0]  asset[0]  4.1864634488538062e-002
    asset[0]  asset[1]  8.3925379448303253e-003
    asset[1]  asset[0]  8.3925379448303253e-003
    asset[0]  asset[2]  2.8366781083338935e-003
    asset[2]  asset[0]  2.8366781083338935e-003
    asset[0]  asset[3]  1.8312156978582485e-002
    asset[3]  asset[0]  1.8312156978582485e-002
    asset[0]  asset[4]  -3.2658341372849786e-002
    asset[4]  asset[0]  -3.2658341372849786e-002
    asset[0]  asset[5]  4.3413091942107157e-002
    asset[5]  asset[0]  4.3413091942107157e-002
    asset[0]  asset[6]  -1.4826916172519260e-002
    asset[6]  asset[0]  -1.4826916172519260e-002
    asset[0]  asset[7]  -1.7638718094775394e-002
    asset[7]  asset[0]  -1.7638718094775394e-002
    asset[0]  asset[8]  -1.7175166034180309e-003
    asset[8]  asset[0]  -1.7175166034180309e-003
    asset[0]  asset[9]  5.0948167672972677e-003
    asset[9]  asset[0]  5.0948167672972677e-003
    asset[1]  asset[1]  1.8009090307323550e-002
    asset[1]  asset[2]  -1.6456504584181710e-002
    asset[2]  asset[1]  -1.6456504584181710e-002
    asset[1]  asset[3]  -1.0296280117640541e-002
    asset[3]  asset[1]  -1.0296280117640541e-002
    asset[1]  asset[4]  -1.2234188740993125e-002
    asset[4]  asset[1]  -1.2234188740993125e-002
    asset[1]  asset[5]  2.2816426353769433e-003
    asset[5]  asset[1]  2.2816426353769433e-003
    asset[1]  asset[6]  -1.4025637937858078e-002
    asset[6]  asset[1]  -1.4025637937858078e-002
    asset[1]  asset[7]  -6.3265494804447069e-004
    asset[7]  asset[1]  -6.3265494804447069e-004
    asset[1]  asset[8]  7.0304521703977718e-003
    asset[8]  asset[1]  7.0304521703977718e-003
    asset[1]  asset[9]  -1.0275232204703605e-002
    asset[9]  asset[1]  -1.0275232204703605e-002
    asset[2]  asset[2]  3.0021838158796790e-002
    asset[2]  asset[3]  1.7799828526441117e-002
    asset[3]  asset[2]  1.7799828526441117e-002
    asset[2]  asset[4]  2.1343501552162136e-002
    asset[4]  asset[2]  2.1343501552162136e-002
    asset[2]  asset[5]  1.3412855125800233e-002
    asset[5]  asset[2]  1.3412855125800233e-002
    asset[2]  asset[6]  2.0742087147591608e-002
    asset[6]  asset[2]  2.0742087147591608e-002
    asset[2]  asset[7]  -8.1583602966829941e-003
    asset[7]  asset[2]  -8.1583602966829941e-003
    asset[2]  asset[8]  -1.6390130403918228e-002
    asset[8]  asset[2]  -1.6390130403918228e-002
    asset[2]  asset[9]  2.4921782995983827e-002
    asset[9]  asset[2]  2.4921782995983827e-002
    asset[3]  asset[3]  3.0869101608480456e-002
    asset[3]  asset[4]  -1.8816545727541614e-002
    asset[4]  asset[3]  -1.8816545727541614e-002
    asset[3]  asset[5]  3.7811610651133254e-002
    asset[5]  asset[3]  3.7811610651133254e-002
    asset[3]  asset[6]  1.2561334907230793e-003
    asset[6]  asset[3]  1.2561334907230793e-003
    asset[3]  asset[7]  -2.8954774834550098e-002
    asset[7]  asset[3]  -2.8954774834550098e-002
    asset[3]  asset[8]  -6.2891998846656243e-003
    asset[8]  asset[3]  -6.2891998846656243e-003
    asset[3]  asset[9]  1.5318132317907391e-002
    asset[9]  asset[3]  1.5318132317907391e-002
    asset[4]  asset[4]  6.7499159652570070e-002
    asset[4]  asset[5]  -4.0897664862648585e-002
    asset[5]  asset[4]  -4.0897664862648585e-002
    asset[4]  asset[6]  3.4291457001977714e-002
    asset[6]  asset[4]  3.4291457001977714e-002
    asset[4]  asset[7]  2.8063991088218838e-002
    asset[7]  asset[4]  2.8063991088218838e-002
    asset[4]  asset[8]  -1.6302864705457797e-002
    asset[8]  asset[4]  -1.6302864705457797e-002
    asset[4]  asset[9]  1.7111800808408628e-002
    asset[9]  asset[4]  1.7111800808408628e-002
    asset[5]  asset[5]  6.3980856207670911e-002
    asset[5]  asset[6]  -1.1918083996988659e-002
    asset[6]  asset[5]  -1.1918083996988659e-002
    asset[5]  asset[7]  -4.2404263609553135e-002
    asset[7]  asset[5]  -4.2404263609553135e-002
    asset[5]  asset[8]  -4.7369922679070652e-003
    asset[8]  asset[5]  -4.7369922679070652e-003
    asset[5]  asset[9]  1.5302526825692799e-002
    asset[9]  asset[5]  1.5302526825692799e-002
    asset[6]  asset[6]  2.2478343411405997e-002
    asset[6]  asset[7]  6.7720636983965923e-003
    asset[7]  asset[6]  6.7720636983965923e-003
    asset[6]  asset[8]  -1.2352775259500251e-002
    asset[8]  asset[6]  -1.2352775259500251e-002
    asset[6]  asset[9]  1.6251962508168509e-002
    asset[9]  asset[6]  1.6251962508168509e-002
    asset[7]  asset[7]  4.0212298541382682e-002
    asset[7]  asset[8]  1.0875551485315781e-003
    asset[8]  asset[7]  1.0875551485315781e-003
    asset[7]  asset[9]  -1.0571499222198969e-002
    asset[9]  asset[7]  -1.0571499222198969e-002
    asset[8]  asset[8]  9.9553101343706589e-003
    asset[8]  asset[9]  -1.4135932688735624e-002
    asset[9]  asset[8]  -1.4135932688735624e-002
    asset[9]  asset[9]  2.2159301226416715e-002
QCMATRIX   fixed_risk
    asset[0]  asset[0]  4.2399577178671502e-003
    asset[1]  asset[1]  1.6032597504349656e-003
    asset[2]  asset[2]  3.2301541303321199e-003
    asset[3]  asset[3]  3.3532459439109584e-003
    asset[4]  asset[4]  6.7801786636443057e-003
    asset[5]  asset[5]  6.2143922535431786e-003
    asset[6]  asset[6]  2.1815994880702528e-003
    asset[7]  asset[7]  4.4430162445102169e-003
    asset[8]  asset[8]  1.0438635470605521e-003
    asset[9]  asset[9]  2.2580719568004301e-003
ENDATA
